NAME /Users/henri/Research/solvers/instances/idol-instances/robust/collection/spp_dkp_Lefebvre_et_al_2026/shortest_path_8_2/uncertainty_sets/discrete_knapsack
ROWS
 N  OBJ
 L  primal_lower
COLUMNS
    MARKER    'MARKER'                 'INTORG'
    y[0,1]     OBJ        0
    y[0,1]     primal_lower -3.81
    y[0,2]     OBJ        0
    y[0,2]     primal_lower -0.48
    y[0,3]     OBJ        0
    y[0,3]     primal_lower -3.4
    y[0,4]     OBJ        0
    y[0,4]     primal_lower -1.65
    y[0,5]     OBJ        0
    y[0,5]     primal_lower -1.64
    y[0,6]     OBJ        0
    y[0,6]     primal_lower -2.78
    y[0,7]     OBJ        0
    y[0,7]     primal_lower -1.8
    y[1,0]     OBJ        0
    y[1,0]     primal_lower -1.87
    y[1,3]     OBJ        0
    y[1,3]     primal_lower -2.33
    y[2,0]     OBJ        0
    y[2,0]     primal_lower -3.24
    y[2,3]     OBJ        0
    y[2,3]     primal_lower -4.39
    y[2,4]     OBJ        0
    y[2,4]     primal_lower -2.08
    y[2,5]     OBJ        0
    y[2,5]     primal_lower -1.95
    y[2,6]     OBJ        0
    y[2,6]     primal_lower -0.52
    y[2,7]     OBJ        0
    y[2,7]     primal_lower -0.99
    y[3,0]     OBJ        0
    y[3,0]     primal_lower -4.37
    y[3,1]     OBJ        0
    y[3,1]     primal_lower -4.31
    y[3,2]     OBJ        0
    y[3,2]     primal_lower -4.03
    y[3,4]     OBJ        0
    y[3,4]     primal_lower -2.95
    y[3,5]     OBJ        0
    y[3,5]     primal_lower -0.98
    y[3,6]     OBJ        0
    y[3,6]     primal_lower -2.91
    y[3,7]     OBJ        0
    y[3,7]     primal_lower -0.64
    y[4,0]     OBJ        0
    y[4,0]     primal_lower -2.09
    y[4,2]     OBJ        0
    y[4,2]     primal_lower -3.99
    y[4,3]     OBJ        0
    y[4,3]     primal_lower -1.18
    y[4,5]     OBJ        0
    y[4,5]     primal_lower -3.04
    y[4,6]     OBJ        0
    y[4,6]     primal_lower -3.94
    y[4,7]     OBJ        0
    y[4,7]     primal_lower -0.68
    y[5,0]     OBJ        0
    y[5,0]     primal_lower -2.57
    y[5,2]     OBJ        0
    y[5,2]     primal_lower -0.73
    y[5,3]     OBJ        0
    y[5,3]     primal_lower -0.79
    y[5,4]     OBJ        0
    y[5,4]     primal_lower -0.47
    y[5,6]     OBJ        0
    y[5,6]     primal_lower -0.93
    y[5,7]     OBJ        0
    y[5,7]     primal_lower -2.08
    y[6,0]     OBJ        0
    y[6,0]     primal_lower -3.63
    y[6,2]     OBJ        0
    y[6,2]     primal_lower -4.52
    y[6,3]     OBJ        0
    y[6,3]     primal_lower -3.68
    y[6,4]     OBJ        0
    y[6,4]     primal_lower -1.72
    y[6,5]     OBJ        0
    y[6,5]     primal_lower -2.35
    y[6,7]     OBJ        0
    y[6,7]     primal_lower -0.27
    y[7,0]     OBJ        0
    y[7,0]     primal_lower -3.25
    y[7,2]     OBJ        0
    y[7,2]     primal_lower -0.33
    y[7,3]     OBJ        0
    y[7,3]     primal_lower -4.03
    y[7,4]     OBJ        0
    y[7,4]     primal_lower -3.31
    y[7,5]     OBJ        0
    y[7,5]     primal_lower -3.8
    y[7,6]     OBJ        0
    y[7,6]     primal_lower -3.24
    u[0,1]     OBJ        0
    u[0,1]     primal_lower 77
    u[0,2]     OBJ        0
    u[0,2]     primal_lower 11
    u[0,3]     OBJ        0
    u[0,3]     primal_lower 77
    u[0,4]     OBJ        0
    u[0,4]     primal_lower 60
    u[0,5]     OBJ        0
    u[0,5]     primal_lower 43
    u[0,6]     OBJ        0
    u[0,6]     primal_lower 49
    u[0,7]     OBJ        0
    u[0,7]     primal_lower 76
    u[1,0]     OBJ        0
    u[1,0]     primal_lower 61
    u[1,3]     OBJ        0
    u[1,3]     primal_lower 89
    u[2,0]     OBJ        0
    u[2,0]     primal_lower 51
    u[2,3]     OBJ        0
    u[2,3]     primal_lower 39
    u[2,4]     OBJ        0
    u[2,4]     primal_lower 58
    u[2,5]     OBJ        0
    u[2,5]     primal_lower 30
    u[2,6]     OBJ        0
    u[2,6]     primal_lower 7
    u[2,7]     OBJ        0
    u[2,7]     primal_lower 29
    u[3,0]     OBJ        0
    u[3,0]     primal_lower 17
    u[3,1]     OBJ        0
    u[3,1]     primal_lower 74
    u[3,2]     OBJ        0
    u[3,2]     primal_lower 56
    u[3,4]     OBJ        0
    u[3,4]     primal_lower 11
    u[3,5]     OBJ        0
    u[3,5]     primal_lower 28
    u[3,6]     OBJ        0
    u[3,6]     primal_lower 57
    u[3,7]     OBJ        0
    u[3,7]     primal_lower 88
    u[4,0]     OBJ        0
    u[4,0]     primal_lower 80
    u[4,2]     OBJ        0
    u[4,2]     primal_lower 100
    u[4,3]     OBJ        0
    u[4,3]     primal_lower 97
    u[4,5]     OBJ        0
    u[4,5]     primal_lower 84
    u[4,6]     OBJ        0
    u[4,6]     primal_lower 41
    u[4,7]     OBJ        0
    u[4,7]     primal_lower 51
    u[5,0]     OBJ        0
    u[5,0]     primal_lower 22
    u[5,2]     OBJ        0
    u[5,2]     primal_lower 96
    u[5,3]     OBJ        0
    u[5,3]     primal_lower 26
    u[5,4]     OBJ        0
    u[5,4]     primal_lower 29
    u[5,6]     OBJ        0
    u[5,6]     primal_lower 54
    u[5,7]     OBJ        0
    u[5,7]     primal_lower 95
    u[6,0]     OBJ        0
    u[6,0]     primal_lower 9
    u[6,2]     OBJ        0
    u[6,2]     primal_lower 99
    u[6,3]     OBJ        0
    u[6,3]     primal_lower 18
    u[6,4]     OBJ        0
    u[6,4]     primal_lower 64
    u[6,5]     OBJ        0
    u[6,5]     primal_lower 3
    u[6,7]     OBJ        0
    u[6,7]     primal_lower 51
    u[7,0]     OBJ        0
    u[7,0]     primal_lower 6
    u[7,2]     OBJ        0
    u[7,2]     primal_lower 3
    u[7,3]     OBJ        0
    u[7,3]     primal_lower 1
    u[7,4]     OBJ        0
    u[7,4]     primal_lower 48
    u[7,5]     OBJ        0
    u[7,5]     primal_lower 85
    u[7,6]     OBJ        0
    u[7,6]     primal_lower 69
    MARKER    'MARKER'                 'INTEND'
RHS
    RHS       primal_lower 210
BOUNDS
 LI BND       y[0,1]     0
 UI BND       y[0,1]     1
 LI BND       y[0,2]     0
 UI BND       y[0,2]     1
 LI BND       y[0,3]     0
 UI BND       y[0,3]     1
 LI BND       y[0,4]     0
 UI BND       y[0,4]     1
 LI BND       y[0,5]     0
 UI BND       y[0,5]     1
 LI BND       y[0,6]     0
 UI BND       y[0,6]     1
 LI BND       y[0,7]     0
 UI BND       y[0,7]     1
 LI BND       y[1,0]     0
 UI BND       y[1,0]     1
 LI BND       y[1,3]     0
 UI BND       y[1,3]     1
 LI BND       y[2,0]     0
 UI BND       y[2,0]     1
 LI BND       y[2,3]     0
 UI BND       y[2,3]     1
 LI BND       y[2,4]     0
 UI BND       y[2,4]     1
 LI BND       y[2,5]     0
 UI BND       y[2,5]     1
 LI BND       y[2,6]     0
 UI BND       y[2,6]     1
 LI BND       y[2,7]     0
 UI BND       y[2,7]     1
 LI BND       y[3,0]     0
 UI BND       y[3,0]     1
 LI BND       y[3,1]     0
 UI BND       y[3,1]     1
 LI BND       y[3,2]     0
 UI BND       y[3,2]     1
 LI BND       y[3,4]     0
 UI BND       y[3,4]     1
 LI BND       y[3,5]     0
 UI BND       y[3,5]     1
 LI BND       y[3,6]     0
 UI BND       y[3,6]     1
 LI BND       y[3,7]     0
 UI BND       y[3,7]     1
 LI BND       y[4,0]     0
 UI BND       y[4,0]     1
 LI BND       y[4,2]     0
 UI BND       y[4,2]     1
 LI BND       y[4,3]     0
 UI BND       y[4,3]     1
 LI BND       y[4,5]     0
 UI BND       y[4,5]     1
 LI BND       y[4,6]     0
 UI BND       y[4,6]     1
 LI BND       y[4,7]     0
 UI BND       y[4,7]     1
 LI BND       y[5,0]     0
 UI BND       y[5,0]     1
 LI BND       y[5,2]     0
 UI BND       y[5,2]     1
 LI BND       y[5,3]     0
 UI BND       y[5,3]     1
 LI BND       y[5,4]     0
 UI BND       y[5,4]     1
 LI BND       y[5,6]     0
 UI BND       y[5,6]     1
 LI BND       y[5,7]     0
 UI BND       y[5,7]     1
 LI BND       y[6,0]     0
 UI BND       y[6,0]     1
 LI BND       y[6,2]     0
 UI BND       y[6,2]     1
 LI BND       y[6,3]     0
 UI BND       y[6,3]     1
 LI BND       y[6,4]     0
 UI BND       y[6,4]     1
 LI BND       y[6,5]     0
 UI BND       y[6,5]     1
 LI BND       y[6,7]     0
 UI BND       y[6,7]     1
 LI BND       y[7,0]     0
 UI BND       y[7,0]     1
 LI BND       y[7,2]     0
 UI BND       y[7,2]     1
 LI BND       y[7,3]     0
 UI BND       y[7,3]     1
 LI BND       y[7,4]     0
 UI BND       y[7,4]     1
 LI BND       y[7,5]     0
 UI BND       y[7,5]     1
 LI BND       y[7,6]     0
 UI BND       y[7,6]     1
 LI BND       u[0,1]     0
 UI BND       u[0,1]     1
 LI BND       u[0,2]     0
 UI BND       u[0,2]     1
 LI BND       u[0,3]     0
 UI BND       u[0,3]     1
 LI BND       u[0,4]     0
 UI BND       u[0,4]     1
 LI BND       u[0,5]     0
 UI BND       u[0,5]     1
 LI BND       u[0,6]     0
 UI BND       u[0,6]     1
 LI BND       u[0,7]     0
 UI BND       u[0,7]     1
 LI BND       u[1,0]     0
 UI BND       u[1,0]     1
 LI BND       u[1,3]     0
 UI BND       u[1,3]     1
 LI BND       u[2,0]     0
 UI BND       u[2,0]     1
 LI BND       u[2,3]     0
 UI BND       u[2,3]     1
 LI BND       u[2,4]     0
 UI BND       u[2,4]     1
 LI BND       u[2,5]     0
 UI BND       u[2,5]     1
 LI BND       u[2,6]     0
 UI BND       u[2,6]     1
 LI BND       u[2,7]     0
 UI BND       u[2,7]     1
 LI BND       u[3,0]     0
 UI BND       u[3,0]     1
 LI BND       u[3,1]     0
 UI BND       u[3,1]     1
 LI BND       u[3,2]     0
 UI BND       u[3,2]     1
 LI BND       u[3,4]     0
 UI BND       u[3,4]     1
 LI BND       u[3,5]     0
 UI BND       u[3,5]     1
 LI BND       u[3,6]     0
 UI BND       u[3,6]     1
 LI BND       u[3,7]     0
 UI BND       u[3,7]     1
 LI BND       u[4,0]     0
 UI BND       u[4,0]     1
 LI BND       u[4,2]     0
 UI BND       u[4,2]     1
 LI BND       u[4,3]     0
 UI BND       u[4,3]     1
 LI BND       u[4,5]     0
 UI BND       u[4,5]     1
 LI BND       u[4,6]     0
 UI BND       u[4,6]     1
 LI BND       u[4,7]     0
 UI BND       u[4,7]     1
 LI BND       u[5,0]     0
 UI BND       u[5,0]     1
 LI BND       u[5,2]     0
 UI BND       u[5,2]     1
 LI BND       u[5,3]     0
 UI BND       u[5,3]     1
 LI BND       u[5,4]     0
 UI BND       u[5,4]     1
 LI BND       u[5,6]     0
 UI BND       u[5,6]     1
 LI BND       u[5,7]     0
 UI BND       u[5,7]     1
 LI BND       u[6,0]     0
 UI BND       u[6,0]     1
 LI BND       u[6,2]     0
 UI BND       u[6,2]     1
 LI BND       u[6,3]     0
 UI BND       u[6,3]     1
 LI BND       u[6,4]     0
 UI BND       u[6,4]     1
 LI BND       u[6,5]     0
 UI BND       u[6,5]     1
 LI BND       u[6,7]     0
 UI BND       u[6,7]     1
 LI BND       u[7,0]     0
 UI BND       u[7,0]     1
 LI BND       u[7,2]     0
 UI BND       u[7,2]     1
 LI BND       u[7,3]     0
 UI BND       u[7,3]     1
 LI BND       u[7,4]     0
 UI BND       u[7,4]     1
 LI BND       u[7,5]     0
 UI BND       u[7,5]     1
 LI BND       u[7,6]     0
 UI BND       u[7,6]     1
ENDATA
